c instance by G2
c solution = 1110001010011
c Known solution cost is 771 
p cnf 13 30
w 48 80 33 54 51 88 63 83 15 89 29 52 86
-1 -2 -10 0
-11 -7 8 0
-9 -4 -13 0
2 -10 1 0
-11 8 -13 0
11 -10 -13 0
-2 -5 8 0
2 11 5 0
4 -13 12 0
-13 9 -2 0
1 -12 2 0
9 -8 -11 0
3 8 11 0
2 10 7 0
-11 1 -6 0
9 -1 -12 0
-3 6 1 0
5 2 -13 0
10 -9 12 0
5 -8 4 0
2 5 13 0
-4 1 -6 0
-8 -10 -11 0
13 -11 6 0
-6 4 3 0
6 -9 13 0
13 -3 7 0
4 -9 7 0
-6 4 -2 0
1 -13 -11 0
